p cnf 19 206
1 3 6 0
1 3 9 0
1 3 12 0
1 3 14 0
1 6 8 0
1 6 12 0
1 6 16 0
1 6 17 0
1 6 18 0
1 8 9 0
1 8 12 0
1 8 14 0
1 9 12 0
1 9 16 0
1 9 17 0
1 9 18 0
1 10 16 0
1 10 18 0
1 12 13 0
1 12 14 0
1 12 16 0
1 12 17 0
1 12 18 0
1 13 18 0
1 14 16 0
1 14 17 0
1 14 18 0
3 1 2 0
3 1 7 0
3 2 4 0
3 2 10 0
3 2 11 0
3 2 13 0
3 2 15 0
3 4 7 0
3 7 10 0
3 7 11 0
3 7 13 0
3 7 15 0
3 10 16 0
3 10 18 0
3 13 18 0
4 3 6 0
4 3 9 0
4 3 12 0
4 3 14 0
4 6 8 0
4 6 12 0
4 6 16 0
4 6 17 0
4 6 18 0
4 8 9 0
4 8 12 0
4 8 14 0
4 9 12 0
4 9 16 0
4 9 17 0
4 9 18 0
4 10 16 0
4 10 18 0
4 12 13 0
4 12 14 0
4 12 16 0
4 12 17 0
4 12 18 0
4 13 18 0
4 14 16 0
4 14 17 0
4 14 18 0
8 1 2 0
8 1 7 0
8 2 4 0
8 2 10 0
8 2 11 0
8 2 13 0
8 2 15 0
8 4 7 0
8 7 10 0
8 7 11 0
8 7 13 0
8 7 15 0
8 10 16 0
8 10 18 0
8 13 18 0
10 3 6 0
10 3 9 0
10 3 12 0
10 3 14 0
10 6 8 0
10 6 12 0
10 6 17 0
10 8 9 0
10 8 12 0
10 8 14 0
10 9 12 0
10 9 17 0
10 12 13 0
10 12 14 0
10 12 17 0
10 14 17 0
11 3 6 0
11 3 9 0
11 3 12 0
11 3 14 0
11 6 8 0
11 6 12 0
11 6 16 0
11 6 17 0
11 6 18 0
11 8 9 0
11 8 12 0
11 8 14 0
11 9 12 0
11 9 16 0
11 9 17 0
11 9 18 0
11 10 16 0
11 10 18 0
11 12 13 0
11 12 14 0
11 12 16 0
11 12 17 0
11 12 18 0
11 13 18 0
11 14 16 0
11 14 17 0
11 14 18 0
12 1 5 0
12 4 5 0
12 5 10 0
12 5 11 0
12 5 15 0
13 3 6 0
13 3 9 0
13 3 14 0
13 6 8 0
13 6 16 0
13 6 17 0
13 8 9 0
13 8 14 0
13 9 16 0
13 9 17 0
13 10 16 0
13 14 16 0
13 14 17 0
15 3 6 0
15 3 9 0
15 3 12 0
15 3 14 0
15 6 8 0
15 6 12 0
15 6 16 0
15 6 17 0
15 6 18 0
15 8 9 0
15 8 12 0
15 8 14 0
15 9 12 0
15 9 16 0
15 9 17 0
15 9 18 0
15 10 16 0
15 10 18 0
15 12 13 0
15 12 14 0
15 12 16 0
15 12 17 0
15 12 18 0
15 13 18 0
15 14 16 0
15 14 17 0
15 14 18 0
16 1 2 0
16 1 7 0
16 2 4 0
16 2 11 0
16 2 13 0
16 2 15 0
16 4 7 0
16 7 11 0
16 7 13 0
16 7 15 0
16 13 18 0
17 1 2 0
17 1 7 0
17 2 4 0
17 2 10 0
17 2 11 0
17 2 13 0
17 2 15 0
17 4 7 0
17 7 10 0
17 7 11 0
17 7 13 0
17 7 15 0
17 10 16 0
17 10 18 0
17 13 18 0
18 1 2 0
18 1 7 0
18 2 4 0
18 2 11 0
18 2 15 0
18 4 7 0
18 7 11 0
18 7 15 0
